\ENCODING=ISO-8859-1
\Problem name: 

Minimize
 obj1: 0 x1 + 6 x2 + 0 x3 + 0 x4 + 2 x5 + 3 x6 + 4 x7 + 4 x8 + 4 x9 + 4 x10
Subject To
 c1:  - 6 x2 - 2 x5 - 3 x6 - 4 x7 - 4 x8 - 4 x9 - 4 x10 <= 0
 c2:  6 x2 + 2 x5 + 3 x6 + 4 x7 + 4 x8 + 4 x9 + 4 x10 <= 7
 c3:  - x11 + 2 x18 - x21 <= 0
 c4:  x15 - x23 <= 0
 c5:  x16 + x17 - x24 <= 0
 c6:  x11 - x12 - x25 <= 0
 c7:  x11 - x13 - x26 <= 0
 c8:  x11 - x14 - x27 <= 0
 c9:  x12 - x15 - x29 <= 0
 c10: x13 + x14 - x15 - x16 - x30 <= 0
 c11: - x17 - 0.5 x18 + 100 x19 + 100 x20 + 100 x21 + 100 x22 + 100 x23
      + 100 x24 + 100 x25 + 100 x26 + 100 x27 + 100 x28 + 100 x29 + 100 x30
      <= -1
 c12: x12 - x19 + x22 <= 0
 c13: - x12 + x13 - x20 + x28 <= 0
 c14: - x12 + x19 - x22 <= 0
 c15: x12 - x13 + x20 - x28 <= 0
 c16: - 100 x2 + x32 <= 0
 c17: 100 x5 + x35 <= 100
 c18: 100 x6 + x36 <= 100
 c19: 100 x7 + x37 <= 100
 c20: 100 x8 + x38 <= 100
 c21: 100 x9 + x39 <= 100
 c22: 100 x10 + x40 <= 100
 c23: - 100 x2 - x32 <= 0
 c24: 100 x8 - x38 <= 100
 c25: x31 - x35 - x36 - x37  = 0
 c26: x32 + x35 - x38 - x39  = 0
 c27: x36 + x38 - x40  = 0
 c28: x37 - x40  = 0
 c29: - x33 + x39 + x40  = 0
 c30: - x34 + x40  = 0
Bounds
      x1 = 0
 0 <= x2 <= 1
      x3 = 0
      x4 = 0
 0 <= x5 <= 1
 0 <= x6 <= 1
 0 <= x7 <= 1
 0 <= x8 <= 1
 0 <= x9 <= 1
 0 <= x10 <= 1
      x11 Free
      x12 Free
      x13 Free
      x14 Free
      x15 Free
      x16 Free
 1 <= x31 <= 100
-100 <= x32 <= 100
 0 <= x33 <= 100
 0 <= x34 <= 100
 0 <= x35 <= 100
 0 <= x36 <= 100
 0 <= x37 <= 100
-100 <= x38 <= 100
 0 <= x39 <= 100
 0 <= x40 <= 100
Binaries
 x1  x2  x3  x4  x5  x6  x7  x8  x9  x10 
End
